c This file is generated by v2cnfMtr
c Generated on Mon Feb 22 16:55:41 2016
p cnf 884 2321
1 76 0
-1 -76 0
2 77 0
-2 -77 0
4 78 0
-4 -78 0
6 79 0
-6 -79 0
8 80 0
-8 -80 0
10 81 0
-10 -81 0
12 82 0
-12 -82 0
14 83 0
-14 -83 0
16 84 0
-16 -84 0
18 85 0
-18 -85 0
20 86 0
-20 -86 0
22 87 0
-22 -87 0
24 88 0
-24 -88 0
26 89 0
-26 -89 0
28 90 0
-28 -90 0
30 91 0
-30 -91 0
32 92 0
-32 -92 0
34 93 0
-34 -93 0
-76 -2 -94 0
76 94 0
2 94 0
3 77 95 0
-3 -95 0
-77 -95 0
5 77 96 0
-5 -96 0
-77 -96 0
-78 -6 -97 0
78 97 0
6 97 0
-80 -10 -98 0
80 98 0
10 98 0
-82 -14 -99 0
82 99 0
14 99 0
-84 -18 -100 0
84 100 0
18 100 0
-86 -22 -101 0
86 101 0
22 101 0
-88 -26 -102 0
88 102 0
26 102 0
-90 -30 -103 0
90 103 0
30 103 0
-92 -34 -104 0
92 104 0
34 104 0
7 79 105 0
-7 -105 0
-79 -105 0
9 79 106 0
-9 -106 0
-79 -106 0
11 81 107 0
-11 -107 0
-81 -107 0
13 81 108 0
-13 -108 0
-81 -108 0
15 83 109 0
-15 -109 0
-83 -109 0
17 83 110 0
-17 -110 0
-83 -110 0
19 85 111 0
-19 -111 0
-85 -111 0
21 85 112 0
-21 -112 0
-85 -112 0
23 87 113 0
-23 -113 0
-87 -113 0
25 87 114 0
-25 -114 0
-87 -114 0
27 89 115 0
-27 -115 0
-89 -115 0
29 89 116 0
-29 -116 0
-89 -116 0
31 91 117 0
-31 -117 0
-91 -117 0
33 91 118 0
-33 -118 0
-91 -118 0
35 93 119 0
-35 -119 0
-93 -119 0
36 93 120 0
-36 -120 0
-93 -120 0
-94 -97 -98 -99 -100 -101 -102 -103 -104 121 0
94 -121 0
97 -121 0
98 -121 0
99 -121 0
100 -121 0
101 -121 0
102 -121 0
103 -121 0
104 -121 0
121 122 0
-121 -122 0
121 123 0
-121 -123 0
121 69 0
-121 -69 0
-122 -94 -124 0
122 94 -124 0
122 -94 124 0
-122 94 124 0
-122 -97 -125 0
122 97 -125 0
122 -97 125 0
-122 97 125 0
-122 -98 -126 0
122 98 -126 0
122 -98 126 0
-122 98 126 0
-122 -99 -127 0
122 99 -127 0
122 -99 127 0
-122 99 127 0
-122 -100 -128 0
122 100 -128 0
122 -100 128 0
-122 100 128 0
-122 -101 -129 0
122 101 -129 0
122 -101 129 0
-122 101 129 0
-1 -123 -130 0
1 130 0
123 130 0
-122 -102 -131 0
122 102 -131 0
122 -102 131 0
-122 102 131 0
-122 -103 -133 0
122 103 -133 0
122 -103 133 0
-122 103 133 0
-123 -8 -134 0
123 134 0
8 134 0
-122 -104 -135 0
122 104 -135 0
122 -104 135 0
-122 104 135 0
-123 -12 -136 0
123 136 0
12 136 0
-123 -16 -137 0
123 137 0
16 137 0
-123 -20 -138 0
123 138 0
20 138 0
-123 -24 -139 0
123 139 0
24 139 0
-123 -28 -140 0
123 140 0
28 140 0
-123 -32 -141 0
123 141 0
32 141 0
-124 -95 -142 0
124 142 0
95 142 0
-124 -96 -143 0
124 143 0
96 143 0
-125 -105 -144 0
125 144 0
105 144 0
-126 -107 -145 0
126 145 0
107 145 0
-127 -109 -146 0
127 146 0
109 146 0
-128 -111 -147 0
128 147 0
111 147 0
-129 -113 -148 0
129 148 0
113 148 0
-131 -115 -149 0
131 149 0
115 149 0
-133 -117 -150 0
133 150 0
117 150 0
-135 -119 -151 0
135 151 0
119 151 0
-125 -106 -152 0
125 152 0
106 152 0
-126 -108 -153 0
126 153 0
108 153 0
-127 -110 -154 0
127 154 0
110 154 0
-128 -112 -155 0
128 155 0
112 155 0
-129 -114 -156 0
129 156 0
114 156 0
-131 -116 -157 0
131 157 0
116 157 0
-133 -118 -158 0
133 158 0
118 158 0
-135 -120 -159 0
135 159 0
120 159 0
-142 -144 -145 -146 -147 -148 -149 -150 -151 160 0
142 -160 0
144 -160 0
145 -160 0
146 -160 0
147 -160 0
148 -160 0
149 -160 0
150 -160 0
151 -160 0
143 161 0
-143 -161 0
152 162 0
-152 -162 0
153 163 0
-153 -163 0
154 164 0
-154 -164 0
155 165 0
-155 -165 0
156 166 0
-156 -166 0
157 167 0
-157 -167 0
158 168 0
-158 -168 0
159 169 0
-159 -169 0
160 170 0
-160 -170 0
160 171 0
-160 -171 0
160 70 0
-160 -70 0
-170 -142 -172 0
170 142 -172 0
170 -142 172 0
-170 142 172 0
-170 -144 -173 0
170 144 -173 0
170 -144 173 0
-170 144 173 0
-170 -145 -174 0
170 145 -174 0
170 -145 174 0
-170 145 174 0
-170 -146 -175 0
170 146 -175 0
170 -146 175 0
-170 146 175 0
-3 -171 -176 0
3 176 0
171 176 0
-170 -147 -177 0
170 147 -177 0
170 -147 177 0
-170 147 177 0
-171 -7 -178 0
171 178 0
7 178 0
-170 -148 -179 0
170 148 -179 0
170 -148 179 0
-170 148 179 0
-171 -11 -180 0
171 180 0
11 180 0
-170 -149 -181 0
170 149 -181 0
170 -149 181 0
-170 149 181 0
-171 -15 -182 0
171 182 0
15 182 0
-170 -150 -183 0
170 150 -183 0
170 -150 183 0
-170 150 183 0
-171 -19 -184 0
171 184 0
19 184 0
-170 -151 -185 0
170 151 -185 0
170 -151 185 0
-170 151 185 0
-171 -23 -186 0
171 186 0
23 186 0
-171 -27 -187 0
171 187 0
27 187 0
-171 -31 -188 0
171 188 0
31 188 0
-171 -35 -189 0
171 189 0
35 189 0
-172 -161 -190 0
172 190 0
161 190 0
-173 -162 -191 0
173 191 0
162 191 0
-174 -163 -192 0
174 192 0
163 192 0
-175 -164 -193 0
175 193 0
164 193 0
-177 -165 -194 0
177 194 0
165 194 0
-179 -166 -195 0
179 195 0
166 195 0
-181 -167 -196 0
181 196 0
167 196 0
-183 -168 -197 0
183 197 0
168 197 0
-185 -169 -198 0
185 198 0
169 198 0
-190 -191 -192 -193 -194 -195 -196 -197 -198 199 0
190 -199 0
191 -199 0
192 -199 0
193 -199 0
194 -199 0
195 -199 0
196 -199 0
197 -199 0
198 -199 0
199 200 0
-199 -200 0
199 71 0
-199 -71 0
-5 -200 -201 0
5 201 0
200 201 0
-200 -9 -202 0
200 202 0
9 202 0
-200 -13 -203 0
200 203 0
13 203 0
-200 -17 -204 0
200 204 0
17 204 0
-200 -21 -205 0
200 205 0
21 205 0
-200 -25 -206 0
200 206 0
25 206 0
-200 -33 -208 0
200 208 0
33 208 0
-200 -36 -209 0
200 209 0
36 209 0
-2 -130 -176 -201 -210 0
2 210 0
130 210 0
176 210 0
201 210 0
-132 -178 -202 -6 -211 0
132 211 0
178 211 0
202 211 0
6 211 0
-134 -180 -203 -10 -212 0
134 212 0
180 212 0
203 212 0
10 212 0
-137 -184 -205 -18 -214 0
137 214 0
184 214 0
205 214 0
18 214 0
-138 -186 -206 -22 -215 0
138 215 0
186 215 0
206 215 0
22 215 0
-139 -187 -207 -26 -216 0
139 216 0
187 216 0
207 216 0
26 216 0
-140 -188 -208 -30 -217 0
140 217 0
188 217 0
208 217 0
30 217 0
-141 -189 -209 -34 -218 0
141 218 0
189 218 0
209 218 0
34 218 0
210 219 0
-210 -219 0
-211 -212 -213 -214 -215 -216 -217 -218 220 0
211 -220 0
212 -220 0
213 -220 0
214 -220 0
215 -220 0
216 -220 0
217 -220 0
218 -220 0
213 221 0
-213 -221 0
215 222 0
-215 -222 0
216 223 0
-216 -223 0
217 224 0
-217 -224 0
219 220 72 0
-219 -72 0
-220 -72 0
-212 -221 -225 0
212 225 0
221 225 0
-212 -213 -222 -214 -226 0
212 226 0
213 226 0
222 226 0
214 226 0
-214 -213 -223 -227 0
214 227 0
213 227 0
223 227 0
-212 -213 -216 -224 -228 0
212 228 0
213 228 0
216 228 0
224 228 0
-211 -212 -225 -214 -73 0
211 73 0
212 73 0
225 73 0
214 73 0
-211 -212 -226 -227 -74 0
211 74 0
212 74 0
226 74 0
227 74 0
-211 -225 -226 -228 -75 0
211 75 0
225 75 0
226 75 0
228 75 0
39 229 0
-39 -229 0
40 230 0
-40 -230 0
123 231 0
-123 -231 0
-123 -229 233 0
123 -233 0
229 -233 0
-231 -229 234 0
231 -234 0
229 -234 0
-37 -39 235 0
37 -235 0
39 -235 0
-38 -39 236 0
38 -236 0
39 -236 0
-233 -230 242 0
233 -242 0
230 -242 0
-234 -40 240 0
234 -240 0
40 -240 0
-235 -230 238 0
235 -238 0
230 -238 0
-236 -40 237 0
236 -237 0
40 -237 0
237 238 -239 0
-237 239 0
-238 239 0
239 240 -241 0
-239 241 0
-240 241 0
242 241 -232 0
-242 232 0
-241 232 0
41 243 0
-41 -243 0
42 244 0
-42 -244 0
4 245 0
-4 -245 0
-4 -243 247 0
4 -247 0
243 -247 0
-245 -243 248 0
245 -248 0
243 -248 0
-37 -41 249 0
37 -249 0
41 -249 0
-38 -41 250 0
38 -250 0
41 -250 0
-247 -244 256 0
247 -256 0
244 -256 0
-248 -42 254 0
248 -254 0
42 -254 0
-249 -244 252 0
249 -252 0
244 -252 0
-250 -42 251 0
250 -251 0
42 -251 0
251 252 -253 0
-251 253 0
-252 253 0
253 254 -255 0
-253 255 0
-254 255 0
256 255 -246 0
-256 246 0
-255 246 0
43 257 0
-43 -257 0
44 258 0
-44 -258 0
2 399 0
-2 -399 0
-2 -257 261 0
2 -261 0
257 -261 0
-399 -257 262 0
399 -262 0
257 -262 0
-37 -43 263 0
37 -263 0
43 -263 0
-38 -43 264 0
38 -264 0
43 -264 0
-261 -258 270 0
261 -270 0
258 -270 0
-262 -44 268 0
262 -268 0
44 -268 0
-263 -258 266 0
263 -266 0
258 -266 0
-264 -44 265 0
264 -265 0
44 -265 0
265 266 -267 0
-265 267 0
-266 267 0
267 268 -269 0
-267 269 0
-268 269 0
270 269 -400 0
-270 400 0
-269 400 0
45 271 0
-45 -271 0
46 272 0
-46 -272 0
1 413 0
-1 -413 0
-1 -271 275 0
1 -275 0
271 -275 0
-413 -271 276 0
413 -276 0
271 -276 0
-37 -45 277 0
37 -277 0
45 -277 0
-38 -45 278 0
38 -278 0
45 -278 0
-275 -272 284 0
275 -284 0
272 -284 0
-276 -46 282 0
276 -282 0
46 -282 0
-277 -272 280 0
277 -280 0
272 -280 0
-278 -46 279 0
278 -279 0
46 -279 0
279 280 -281 0
-279 281 0
-280 281 0
281 282 -283 0
-281 283 0
-282 283 0
284 283 -414 0
-284 414 0
-283 414 0
47 285 0
-47 -285 0
48 286 0
-48 -286 0
288 287 0
-288 -287 0
-288 -285 289 0
288 -289 0
285 -289 0
-287 -285 290 0
287 -290 0
285 -290 0
-37 -47 291 0
37 -291 0
47 -291 0
-38 -47 292 0
38 -292 0
47 -292 0
-289 -286 298 0
289 -298 0
286 -298 0
-290 -48 296 0
290 -296 0
48 -296 0
-291 -286 294 0
291 -294 0
286 -294 0
-292 -48 293 0
292 -293 0
48 -293 0
293 294 -295 0
-293 295 0
-294 295 0
295 296 -297 0
-295 297 0
-296 297 0
298 297 -132 0
-298 132 0
-297 132 0
-232 -246 -400 -414 -288 0
232 288 0
246 288 0
400 288 0
414 288 0
49 299 0
-49 -299 0
50 300 0
-50 -300 0
136 301 0
-136 -301 0
-136 -299 303 0
136 -303 0
299 -303 0
-301 -299 304 0
301 -304 0
299 -304 0
-37 -49 305 0
37 -305 0
49 -305 0
-38 -49 306 0
38 -306 0
49 -306 0
-303 -300 312 0
303 -312 0
300 -312 0
-304 -50 310 0
304 -310 0
50 -310 0
-305 -300 308 0
305 -308 0
300 -308 0
-306 -50 307 0
306 -307 0
50 -307 0
307 308 -309 0
-307 309 0
-308 309 0
309 310 -311 0
-309 311 0
-310 311 0
312 311 -302 0
-312 302 0
-311 302 0
51 313 0
-51 -313 0
52 314 0
-52 -314 0
182 315 0
-182 -315 0
-182 -313 317 0
182 -317 0
313 -317 0
-315 -313 318 0
315 -318 0
313 -318 0
-37 -51 319 0
37 -319 0
51 -319 0
-38 -51 320 0
38 -320 0
51 -320 0
-317 -314 326 0
317 -326 0
314 -326 0
-318 -52 324 0
318 -324 0
52 -324 0
-319 -314 322 0
319 -322 0
314 -322 0
-320 -52 321 0
320 -321 0
52 -321 0
321 322 -323 0
-321 323 0
-322 323 0
323 324 -325 0
-323 325 0
-324 325 0
326 325 -316 0
-326 316 0
-325 316 0
53 327 0
-53 -327 0
54 328 0
-54 -328 0
204 329 0
-204 -329 0
-204 -327 331 0
204 -331 0
327 -331 0
-329 -327 332 0
329 -332 0
327 -332 0
-37 -53 333 0
37 -333 0
53 -333 0
-38 -53 334 0
38 -334 0
53 -334 0
-331 -328 340 0
331 -340 0
328 -340 0
-332 -54 338 0
332 -338 0
54 -338 0
-333 -328 336 0
333 -336 0
328 -336 0
-334 -54 335 0
334 -335 0
54 -335 0
335 336 -337 0
-335 337 0
-336 337 0
337 338 -339 0
-337 339 0
-338 339 0
340 339 -330 0
-340 330 0
-339 330 0
55 341 0
-55 -341 0
56 342 0
-56 -342 0
14 343 0
-14 -343 0
-14 -341 345 0
14 -345 0
341 -345 0
-343 -341 346 0
343 -346 0
341 -346 0
-37 -55 347 0
37 -347 0
55 -347 0
-38 -55 348 0
38 -348 0
55 -348 0
-345 -342 354 0
345 -354 0
342 -354 0
-346 -56 352 0
346 -352 0
56 -352 0
-347 -342 350 0
347 -350 0
342 -350 0
-348 -56 349 0
348 -349 0
56 -349 0
349 350 -351 0
-349 351 0
-350 351 0
351 352 -353 0
-351 353 0
-352 353 0
354 353 -344 0
-354 344 0
-353 344 0
57 355 0
-57 -355 0
58 356 0
-58 -356 0
358 357 0
-358 -357 0
-358 -355 359 0
358 -359 0
355 -359 0
-357 -355 360 0
357 -360 0
355 -360 0
-37 -57 361 0
37 -361 0
57 -361 0
-38 -57 362 0
38 -362 0
57 -362 0
-359 -356 368 0
359 -368 0
356 -368 0
-360 -58 366 0
360 -366 0
58 -366 0
-361 -356 364 0
361 -364 0
356 -364 0
-362 -58 363 0
362 -363 0
58 -363 0
363 364 -365 0
-363 365 0
-364 365 0
365 366 -367 0
-365 367 0
-366 367 0
368 367 -213 0
-368 213 0
-367 213 0
-302 -316 -330 -344 -358 0
302 358 0
316 358 0
330 358 0
344 358 0
59 369 0
-59 -369 0
60 370 0
-60 -370 0
200 371 0
-200 -371 0
-200 -369 373 0
200 -373 0
369 -373 0
-371 -369 374 0
371 -374 0
369 -374 0
-37 -59 375 0
37 -375 0
59 -375 0
-38 -59 376 0
38 -376 0
59 -376 0
-373 -370 382 0
373 -382 0
370 -382 0
-374 -60 380 0
374 -380 0
60 -380 0
-375 -370 378 0
375 -378 0
370 -378 0
-376 -60 377 0
376 -377 0
60 -377 0
377 378 -379 0
-377 379 0
-378 379 0
379 380 -381 0
-379 381 0
-380 381 0
382 381 -372 0
-382 372 0
-381 372 0
61 383 0
-61 -383 0
62 384 0
-62 -384 0
29 385 0
-29 -385 0
-29 -383 387 0
29 -387 0
383 -387 0
-385 -383 388 0
385 -388 0
383 -388 0
-37 -61 389 0
37 -389 0
61 -389 0
-38 -61 390 0
38 -390 0
61 -390 0
-387 -384 396 0
387 -396 0
384 -396 0
-388 -62 394 0
388 -394 0
62 -394 0
-389 -384 392 0
389 -392 0
384 -392 0
-390 -62 391 0
390 -391 0
62 -391 0
391 392 -393 0
-391 393 0
-392 393 0
393 394 -395 0
-393 395 0
-394 395 0
396 395 -386 0
-396 386 0
-395 386 0
63 397 0
-63 -397 0
64 398 0
-64 -398 0
2 399 0
-2 -399 0
-2 -397 401 0
2 -401 0
397 -401 0
-399 -397 402 0
399 -402 0
397 -402 0
-37 -63 403 0
37 -403 0
63 -403 0
-38 -63 404 0
38 -404 0
63 -404 0
-401 -398 410 0
401 -410 0
398 -410 0
-402 -64 408 0
402 -408 0
64 -408 0
-403 -398 406 0
403 -406 0
398 -406 0
-404 -64 405 0
404 -405 0
64 -405 0
405 406 -407 0
-405 407 0
-406 407 0
407 408 -409 0
-407 409 0
-408 409 0
410 409 -400 0
-410 400 0
-409 400 0
65 411 0
-65 -411 0
66 412 0
-66 -412 0
1 413 0
-1 -413 0
-1 -411 415 0
1 -415 0
411 -415 0
-413 -411 416 0
413 -416 0
411 -416 0
-37 -65 417 0
37 -417 0
65 -417 0
-38 -65 418 0
38 -418 0
65 -418 0
-415 -412 424 0
415 -424 0
412 -424 0
-416 -66 422 0
416 -422 0
66 -422 0
-417 -412 420 0
417 -420 0
412 -420 0
-418 -66 419 0
418 -419 0
66 -419 0
419 420 -421 0
-419 421 0
-420 421 0
421 422 -423 0
-421 423 0
-422 423 0
424 423 -414 0
-424 414 0
-423 414 0
67 425 0
-67 -425 0
68 426 0
-68 -426 0
428 427 0
-428 -427 0
-428 -425 429 0
428 -429 0
425 -429 0
-427 -425 430 0
427 -430 0
425 -430 0
-37 -67 431 0
37 -431 0
67 -431 0
-38 -67 432 0
38 -432 0
67 -432 0
-429 -426 438 0
429 -438 0
426 -438 0
-430 -68 436 0
430 -436 0
68 -436 0
-431 -426 434 0
431 -434 0
426 -434 0
-432 -68 433 0
432 -433 0
68 -433 0
433 434 -435 0
-433 435 0
-434 435 0
435 436 -437 0
-435 437 0
-436 437 0
438 437 -207 0
-438 207 0
-437 207 0
-372 -386 -400 -414 -428 0
372 428 0
386 428 0
400 428 0
414 428 0
c The second circuit:
439 514 0
-439 -514 0
440 515 0
-440 -515 0
442 516 0
-442 -516 0
444 517 0
-444 -517 0
446 518 0
-446 -518 0
448 519 0
-448 -519 0
450 520 0
-450 -520 0
452 521 0
-452 -521 0
454 522 0
-454 -522 0
456 523 0
-456 -523 0
458 524 0
-458 -524 0
460 525 0
-460 -525 0
462 526 0
-462 -526 0
464 527 0
-464 -527 0
466 528 0
-466 -528 0
468 529 0
-468 -529 0
470 530 0
-470 -530 0
472 531 0
-472 -531 0
-514 -440 -532 0
514 532 0
440 532 0
441 515 533 0
-441 -533 0
-515 -533 0
443 515 534 0
-443 -534 0
-515 -534 0
-516 -444 -535 0
516 535 0
444 535 0
-518 -448 -536 0
518 536 0
448 536 0
-520 -452 -537 0
520 537 0
452 537 0
-522 -456 -538 0
522 538 0
456 538 0
-524 -460 -539 0
524 539 0
460 539 0
-526 -464 -540 0
526 540 0
464 540 0
-528 -468 -541 0
528 541 0
468 541 0
-530 -472 -542 0
530 542 0
472 542 0
445 517 543 0
-445 -543 0
-517 -543 0
447 517 544 0
-447 -544 0
-517 -544 0
449 519 545 0
-449 -545 0
-519 -545 0
451 519 546 0
-451 -546 0
-519 -546 0
453 521 547 0
-453 -547 0
-521 -547 0
455 521 548 0
-455 -548 0
-521 -548 0
457 523 549 0
-457 -549 0
-523 -549 0
459 523 550 0
-459 -550 0
-523 -550 0
461 525 551 0
-461 -551 0
-525 -551 0
463 525 552 0
-463 -552 0
-525 -552 0
465 527 553 0
-465 -553 0
-527 -553 0
467 527 554 0
-467 -554 0
-527 -554 0
469 529 555 0
-469 -555 0
-529 -555 0
471 529 556 0
-471 -556 0
-529 -556 0
473 531 557 0
-473 -557 0
-531 -557 0
474 531 558 0
-474 -558 0
-531 -558 0
-532 -535 -536 -537 -538 -539 -540 -541 -542 559 0
532 -559 0
535 -559 0
536 -559 0
537 -559 0
538 -559 0
539 -559 0
540 -559 0
541 -559 0
542 -559 0
559 560 0
-559 -560 0
559 561 0
-559 -561 0
559 507 0
-559 -507 0
-560 -532 -562 0
560 532 -562 0
560 -532 562 0
-560 532 562 0
-560 -535 -563 0
560 535 -563 0
560 -535 563 0
-560 535 563 0
-560 -536 -564 0
560 536 -564 0
560 -536 564 0
-560 536 564 0
-560 -537 -565 0
560 537 -565 0
560 -537 565 0
-560 537 565 0
-560 -538 -566 0
560 538 -566 0
560 -538 566 0
-560 538 566 0
-560 -539 -567 0
560 539 -567 0
560 -539 567 0
-560 539 567 0
-439 -561 -568 0
439 568 0
561 568 0
-560 -540 -569 0
560 540 -569 0
560 -540 569 0
-560 540 569 0
-560 -541 -571 0
560 541 -571 0
560 -541 571 0
-560 541 571 0
-561 -446 -572 0
561 572 0
446 572 0
-560 -542 -573 0
560 542 -573 0
560 -542 573 0
-560 542 573 0
-561 -450 -574 0
561 574 0
450 574 0
-561 -454 -575 0
561 575 0
454 575 0
-561 -458 -576 0
561 576 0
458 576 0
-561 -462 -577 0
561 577 0
462 577 0
-561 -466 -578 0
561 578 0
466 578 0
-561 -470 -579 0
561 579 0
470 579 0
-562 -533 -580 0
562 580 0
533 580 0
-562 -534 -581 0
562 581 0
534 581 0
-563 -543 -582 0
563 582 0
543 582 0
-564 -545 -583 0
564 583 0
545 583 0
-565 -547 -584 0
565 584 0
547 584 0
-566 -549 -585 0
566 585 0
549 585 0
-567 -551 -586 0
567 586 0
551 586 0
-569 -553 -587 0
569 587 0
553 587 0
-571 -555 -588 0
571 588 0
555 588 0
-573 -557 -589 0
573 589 0
557 589 0
-563 -544 -590 0
563 590 0
544 590 0
-564 -546 -591 0
564 591 0
546 591 0
-565 -548 -592 0
565 592 0
548 592 0
-566 -550 -593 0
566 593 0
550 593 0
-567 -552 -594 0
567 594 0
552 594 0
-569 -554 -595 0
569 595 0
554 595 0
-571 -556 -596 0
571 596 0
556 596 0
-573 -558 -597 0
573 597 0
558 597 0
-580 -582 -583 -584 -585 -586 -587 -588 -589 598 0
580 -598 0
582 -598 0
583 -598 0
584 -598 0
585 -598 0
586 -598 0
587 -598 0
588 -598 0
589 -598 0
581 599 0
-581 -599 0
590 600 0
-590 -600 0
591 601 0
-591 -601 0
592 602 0
-592 -602 0
593 603 0
-593 -603 0
594 604 0
-594 -604 0
595 605 0
-595 -605 0
596 606 0
-596 -606 0
597 607 0
-597 -607 0
598 608 0
-598 -608 0
598 609 0
-598 -609 0
598 508 0
-598 -508 0
-608 -580 -610 0
608 580 -610 0
608 -580 610 0
-608 580 610 0
-608 -582 -611 0
608 582 -611 0
608 -582 611 0
-608 582 611 0
-608 -583 -612 0
608 583 -612 0
608 -583 612 0
-608 583 612 0
-608 -584 -613 0
608 584 -613 0
608 -584 613 0
-608 584 613 0
-441 -609 -614 0
441 614 0
609 614 0
-608 -585 -615 0
608 585 -615 0
608 -585 615 0
-608 585 615 0
-609 -445 -616 0
609 616 0
445 616 0
-608 -586 -617 0
608 586 -617 0
608 -586 617 0
-608 586 617 0
-609 -449 -618 0
609 618 0
449 618 0
-608 -587 -619 0
608 587 -619 0
608 -587 619 0
-608 587 619 0
-609 -453 -620 0
609 620 0
453 620 0
-608 -588 -621 0
608 588 -621 0
608 -588 621 0
-608 588 621 0
-609 -457 -622 0
609 622 0
457 622 0
-608 -589 -623 0
608 589 -623 0
608 -589 623 0
-608 589 623 0
-609 -461 -624 0
609 624 0
461 624 0
-609 -465 -625 0
609 625 0
465 625 0
-609 -469 -626 0
609 626 0
469 626 0
-609 -473 -627 0
609 627 0
473 627 0
-610 -599 -628 0
610 628 0
599 628 0
-611 -600 -629 0
611 629 0
600 629 0
-612 -601 -630 0
612 630 0
601 630 0
-613 -602 -631 0
613 631 0
602 631 0
-615 -603 -632 0
615 632 0
603 632 0
-617 -604 -633 0
617 633 0
604 633 0
-619 -605 -634 0
619 634 0
605 634 0
-621 -606 -635 0
621 635 0
606 635 0
-623 -607 -636 0
623 636 0
607 636 0
-628 -629 -630 -631 -632 -633 -634 -635 -636 637 0
628 -637 0
629 -637 0
630 -637 0
631 -637 0
632 -637 0
633 -637 0
634 -637 0
635 -637 0
636 -637 0
637 638 0
-637 -638 0
637 509 0
-637 -509 0
-443 -638 -639 0
443 639 0
638 639 0
-638 -447 -640 0
638 640 0
447 640 0
-638 -451 -641 0
638 641 0
451 641 0
-638 -455 -642 0
638 642 0
455 642 0
-638 -459 -643 0
638 643 0
459 643 0
-638 -463 -644 0
638 644 0
463 644 0
-638 -471 -646 0
638 646 0
471 646 0
-638 -474 -647 0
638 647 0
474 647 0
-440 -568 -614 -639 -648 0
440 648 0
568 648 0
614 648 0
639 648 0
-570 -616 -640 -444 -649 0
570 649 0
616 649 0
640 649 0
444 649 0
-572 -618 -641 -448 -650 0
572 650 0
618 650 0
641 650 0
448 650 0
-575 -622 -643 -456 -652 0
575 652 0
622 652 0
643 652 0
456 652 0
-576 -624 -644 -460 -653 0
576 653 0
624 653 0
644 653 0
460 653 0
-577 -625 -645 -464 -654 0
577 654 0
625 654 0
645 654 0
464 654 0
-578 -626 -646 -468 -655 0
578 655 0
626 655 0
646 655 0
468 655 0
-579 -627 -647 -472 -656 0
579 656 0
627 656 0
647 656 0
472 656 0
648 657 0
-648 -657 0
-649 -650 -651 -652 -653 -654 -655 -656 658 0
649 -658 0
650 -658 0
651 -658 0
652 -658 0
653 -658 0
654 -658 0
655 -658 0
656 -658 0
651 659 0
-651 -659 0
653 660 0
-653 -660 0
654 661 0
-654 -661 0
655 662 0
-655 -662 0
657 658 510 0
-657 -510 0
-658 -510 0
-650 -659 -663 0
650 663 0
659 663 0
-650 -651 -660 -652 -664 0
650 664 0
651 664 0
660 664 0
652 664 0
-652 -651 -661 -665 0
652 665 0
651 665 0
661 665 0
-650 -651 -654 -662 -666 0
650 666 0
651 666 0
654 666 0
662 666 0
-649 -650 -663 -652 -511 0
649 511 0
650 511 0
663 511 0
652 511 0
-649 -650 -664 -665 -512 0
649 512 0
650 512 0
664 512 0
665 512 0
-649 -663 -664 -666 -513 0
649 513 0
663 513 0
664 513 0
666 513 0
477 667 0
-477 -667 0
478 668 0
-478 -668 0
561 669 0
-561 -669 0
-561 -667 671 0
561 -671 0
667 -671 0
-669 -667 672 0
669 -672 0
667 -672 0
-475 -477 673 0
475 -673 0
477 -673 0
-476 -477 674 0
476 -674 0
477 -674 0
-671 -668 680 0
671 -680 0
668 -680 0
-672 -478 678 0
672 -678 0
478 -678 0
-673 -668 676 0
673 -676 0
668 -676 0
-674 -478 675 0
674 -675 0
478 -675 0
675 676 -677 0
-675 677 0
-676 677 0
677 678 -679 0
-677 679 0
-678 679 0
680 679 -670 0
-680 670 0
-679 670 0
479 681 0
-479 -681 0
480 682 0
-480 -682 0
442 683 0
-442 -683 0
-442 -681 685 0
442 -685 0
681 -685 0
-683 -681 686 0
683 -686 0
681 -686 0
-475 -479 687 0
475 -687 0
479 -687 0
-476 -479 688 0
476 -688 0
479 -688 0
-685 -682 694 0
685 -694 0
682 -694 0
-686 -480 692 0
686 -692 0
480 -692 0
-687 -682 690 0
687 -690 0
682 -690 0
-688 -480 689 0
688 -689 0
480 -689 0
689 690 -691 0
-689 691 0
-690 691 0
691 692 -693 0
-691 693 0
-692 693 0
694 693 -684 0
-694 684 0
-693 684 0
481 695 0
-481 -695 0
482 696 0
-482 -696 0
440 837 0
-440 -837 0
-440 -695 699 0
440 -699 0
695 -699 0
-837 -695 700 0
837 -700 0
695 -700 0
-475 -481 701 0
475 -701 0
481 -701 0
-476 -481 702 0
476 -702 0
481 -702 0
-699 -696 708 0
699 -708 0
696 -708 0
-700 -482 706 0
700 -706 0
482 -706 0
-701 -696 704 0
701 -704 0
696 -704 0
-702 -482 703 0
702 -703 0
482 -703 0
703 704 -705 0
-703 705 0
-704 705 0
705 706 -707 0
-705 707 0
-706 707 0
708 707 -838 0
-708 838 0
-707 838 0
483 709 0
-483 -709 0
484 710 0
-484 -710 0
439 851 0
-439 -851 0
-439 -709 713 0
439 -713 0
709 -713 0
-851 -709 714 0
851 -714 0
709 -714 0
-475 -483 715 0
475 -715 0
483 -715 0
-476 -483 716 0
476 -716 0
483 -716 0
-713 -710 722 0
713 -722 0
710 -722 0
-714 -484 720 0
714 -720 0
484 -720 0
-715 -710 718 0
715 -718 0
710 -718 0
-716 -484 717 0
716 -717 0
484 -717 0
717 718 -719 0
-717 719 0
-718 719 0
719 720 -721 0
-719 721 0
-720 721 0
722 721 -852 0
-722 852 0
-721 852 0
485 723 0
-485 -723 0
486 724 0
-486 -724 0
726 725 0
-726 -725 0
-726 -723 727 0
726 -727 0
723 -727 0
-725 -723 728 0
725 -728 0
723 -728 0
-475 -485 729 0
475 -729 0
485 -729 0
-476 -485 730 0
476 -730 0
485 -730 0
-727 -724 736 0
727 -736 0
724 -736 0
-728 -486 734 0
728 -734 0
486 -734 0
-729 -724 732 0
729 -732 0
724 -732 0
-730 -486 731 0
730 -731 0
486 -731 0
731 732 -733 0
-731 733 0
-732 733 0
733 734 -735 0
-733 735 0
-734 735 0
736 735 -570 0
-736 570 0
-735 570 0
-670 -684 -838 -852 -726 0
670 726 0
684 726 0
838 726 0
852 726 0
487 737 0
-487 -737 0
488 738 0
-488 -738 0
574 739 0
-574 -739 0
-574 -737 741 0
574 -741 0
737 -741 0
-739 -737 742 0
739 -742 0
737 -742 0
-475 -487 743 0
475 -743 0
487 -743 0
-476 -487 744 0
476 -744 0
487 -744 0
-741 -738 750 0
741 -750 0
738 -750 0
-742 -488 748 0
742 -748 0
488 -748 0
-743 -738 746 0
743 -746 0
738 -746 0
-744 -488 745 0
744 -745 0
488 -745 0
745 746 -747 0
-745 747 0
-746 747 0
747 748 -749 0
-747 749 0
-748 749 0
750 749 -740 0
-750 740 0
-749 740 0
489 751 0
-489 -751 0
490 752 0
-490 -752 0
620 753 0
-620 -753 0
-620 -751 755 0
620 -755 0
751 -755 0
-753 -751 756 0
753 -756 0
751 -756 0
-475 -489 757 0
475 -757 0
489 -757 0
-476 -489 758 0
476 -758 0
489 -758 0
-755 -752 764 0
755 -764 0
752 -764 0
-756 -490 762 0
756 -762 0
490 -762 0
-757 -752 760 0
757 -760 0
752 -760 0
-758 -490 759 0
758 -759 0
490 -759 0
759 760 -761 0
-759 761 0
-760 761 0
761 762 -763 0
-761 763 0
-762 763 0
764 763 -754 0
-764 754 0
-763 754 0
491 765 0
-491 -765 0
492 766 0
-492 -766 0
642 767 0
-642 -767 0
-642 -765 769 0
642 -769 0
765 -769 0
-767 -765 770 0
767 -770 0
765 -770 0
-475 -491 771 0
475 -771 0
491 -771 0
-476 -491 772 0
476 -772 0
491 -772 0
-769 -766 778 0
769 -778 0
766 -778 0
-770 -492 776 0
770 -776 0
492 -776 0
-771 -766 774 0
771 -774 0
766 -774 0
-772 -492 773 0
772 -773 0
492 -773 0
773 774 -775 0
-773 775 0
-774 775 0
775 776 -777 0
-775 777 0
-776 777 0
778 777 -768 0
-778 768 0
-777 768 0
493 779 0
-493 -779 0
494 780 0
-494 -780 0
452 781 0
-452 -781 0
-452 -779 783 0
452 -783 0
779 -783 0
-781 -779 784 0
781 -784 0
779 -784 0
-475 -493 785 0
475 -785 0
493 -785 0
-476 -493 786 0
476 -786 0
493 -786 0
-783 -780 792 0
783 -792 0
780 -792 0
-784 -494 790 0
784 -790 0
494 -790 0
-785 -780 788 0
785 -788 0
780 -788 0
-786 -494 787 0
786 -787 0
494 -787 0
787 788 -789 0
-787 789 0
-788 789 0
789 790 -791 0
-789 791 0
-790 791 0
792 791 -782 0
-792 782 0
-791 782 0
495 793 0
-495 -793 0
496 794 0
-496 -794 0
796 795 0
-796 -795 0
-796 -793 797 0
796 -797 0
793 -797 0
-795 -793 798 0
795 -798 0
793 -798 0
-475 -495 799 0
475 -799 0
495 -799 0
-476 -495 800 0
476 -800 0
495 -800 0
-797 -794 806 0
797 -806 0
794 -806 0
-798 -496 804 0
798 -804 0
496 -804 0
-799 -794 802 0
799 -802 0
794 -802 0
-800 -496 801 0
800 -801 0
496 -801 0
801 802 -803 0
-801 803 0
-802 803 0
803 804 -805 0
-803 805 0
-804 805 0
806 805 -651 0
-806 651 0
-805 651 0
-740 -754 -768 -782 -796 0
740 796 0
754 796 0
768 796 0
782 796 0
497 807 0
-497 -807 0
498 808 0
-498 -808 0
638 809 0
-638 -809 0
-638 -807 811 0
638 -811 0
807 -811 0
-809 -807 812 0
809 -812 0
807 -812 0
-475 -497 813 0
475 -813 0
497 -813 0
-476 -497 814 0
476 -814 0
497 -814 0
-811 -808 820 0
811 -820 0
808 -820 0
-812 -498 818 0
812 -818 0
498 -818 0
-813 -808 816 0
813 -816 0
808 -816 0
-814 -498 815 0
814 -815 0
498 -815 0
815 816 -817 0
-815 817 0
-816 817 0
817 818 -819 0
-817 819 0
-818 819 0
820 819 -810 0
-820 810 0
-819 810 0
499 821 0
-499 -821 0
500 822 0
-500 -822 0
467 823 0
-467 -823 0
-467 -821 825 0
467 -825 0
821 -825 0
-823 -821 826 0
823 -826 0
821 -826 0
-475 -499 827 0
475 -827 0
499 -827 0
-476 -499 828 0
476 -828 0
499 -828 0
-825 -822 834 0
825 -834 0
822 -834 0
-826 -500 832 0
826 -832 0
500 -832 0
-827 -822 830 0
827 -830 0
822 -830 0
-828 -500 829 0
828 -829 0
500 -829 0
829 830 -831 0
-829 831 0
-830 831 0
831 832 -833 0
-831 833 0
-832 833 0
834 833 -824 0
-834 824 0
-833 824 0
501 835 0
-501 -835 0
502 836 0
-502 -836 0
440 837 0
-440 -837 0
-440 -835 839 0
440 -839 0
835 -839 0
-837 -835 840 0
837 -840 0
835 -840 0
-475 -501 841 0
475 -841 0
501 -841 0
-476 -501 842 0
476 -842 0
501 -842 0
-839 -836 848 0
839 -848 0
836 -848 0
-840 -502 846 0
840 -846 0
502 -846 0
-841 -836 844 0
841 -844 0
836 -844 0
-842 -502 843 0
842 -843 0
502 -843 0
843 844 -845 0
-843 845 0
-844 845 0
845 846 -847 0
-845 847 0
-846 847 0
848 847 -838 0
-848 838 0
-847 838 0
503 849 0
-503 -849 0
504 850 0
-504 -850 0
439 851 0
-439 -851 0
-439 -849 853 0
439 -853 0
849 -853 0
-851 -849 854 0
851 -854 0
849 -854 0
-475 -503 855 0
475 -855 0
503 -855 0
-476 -503 856 0
476 -856 0
503 -856 0
-853 -850 862 0
853 -862 0
850 -862 0
-854 -504 860 0
854 -860 0
504 -860 0
-855 -850 858 0
855 -858 0
850 -858 0
-856 -504 857 0
856 -857 0
504 -857 0
857 858 -859 0
-857 859 0
-858 859 0
859 860 -861 0
-859 861 0
-860 861 0
862 861 -852 0
-862 852 0
-861 852 0
505 863 0
-505 -863 0
506 864 0
-506 -864 0
866 865 0
-866 -865 0
-866 -863 867 0
866 -867 0
863 -867 0
-865 -863 868 0
865 -868 0
863 -868 0
-475 -505 869 0
475 -869 0
505 -869 0
-476 -505 870 0
476 -870 0
505 -870 0
-867 -864 876 0
867 -876 0
864 -876 0
-868 -506 874 0
868 -874 0
506 -874 0
-869 -864 872 0
869 -872 0
864 -872 0
-870 -506 871 0
870 -871 0
506 -871 0
871 872 -873 0
-871 873 0
-872 873 0
873 874 -875 0
-873 875 0
-874 875 0
876 875 -645 0
-876 645 0
-875 645 0
-810 -824 -838 -852 -866 0
810 866 0
824 866 0
838 866 0
852 866 0
37 0
-38 0
c Force PIs of 2 ckts to be the same:
1 -439 0
-1 439 0
2 -440 0
-2 440 0
3 -441 0
-3 441 0
4 -442 0
-4 442 0
5 -443 0
-5 443 0
6 -444 0
-6 444 0
7 -445 0
-7 445 0
8 -446 0
-8 446 0
9 -447 0
-9 447 0
10 -448 0
-10 448 0
11 -449 0
-11 449 0
12 -450 0
-12 450 0
13 -451 0
-13 451 0
14 -452 0
-14 452 0
15 -453 0
-15 453 0
16 -454 0
-16 454 0
17 -455 0
-17 455 0
18 -456 0
-18 456 0
19 -457 0
-19 457 0
20 -458 0
-20 458 0
21 -459 0
-21 459 0
22 -460 0
-22 460 0
23 -461 0
-23 461 0
24 -462 0
-24 462 0
25 -463 0
-25 463 0
26 -464 0
-26 464 0
27 -465 0
-27 465 0
28 -466 0
-28 466 0
29 -467 0
-29 467 0
30 -468 0
-30 468 0
31 -469 0
-31 469 0
32 -470 0
-32 470 0
33 -471 0
-33 471 0
34 -472 0
-34 472 0
35 -473 0
-35 473 0
36 -474 0
-36 474 0
37 -475 0
-37 475 0
38 -476 0
-38 476 0
c XOR outputs of 2 ckts:
-69 -507 -877 0
69 507 -877 0
69 -507 877 0
-69 507 877 0
-70 -508 -878 0
70 508 -878 0
70 -508 878 0
-70 508 878 0
-71 -509 -879 0
71 509 -879 0
71 -509 879 0
-71 509 879 0
-72 -510 -880 0
72 510 -880 0
72 -510 880 0
-72 510 880 0
-73 -511 -881 0
73 511 -881 0
73 -511 881 0
-73 511 881 0
-74 -512 -882 0
74 512 -882 0
74 -512 882 0
-74 512 882 0
-75 -513 -883 0
75 513 -883 0
75 -513 883 0
-75 513 883 0
c The last OR gate of the miter:
877 878 879 880 881 882 883 -884 0
-877 884 0
-878 884 0
-879 884 0
-880 884 0
-881 884 0
-882 884 0
-883 884 0
884 0
